; Insertion sort
(declare-datatypes (a)
  ((list (nil) (cons (head a) (tail (list a))))))
(define-fun-rec
  (par (a)
    (insert2
       ((x a) (y (list a))) (list a)
       (match y
         (case nil (cons x (as nil (list a))))
         (case (cons z xs)
           (ite (<= x z) (cons x y) (cons z (insert2 x xs))))))))
(define-fun-rec
  (par (a)
    (isort
       ((x (list a))) (list a)
       (match x
         (case nil (as nil (list a)))
         (case (cons y xs) (insert2 y (isort xs)))))))
(define-fun-rec
  (par (a)
    (elem
       ((x a) (y (list a))) Bool
       (match y
         (case nil false)
         (case (cons z xs) (or (= z x) (elem x xs)))))))
(define-fun-rec
  (par (a)
    (deleteBy
       ((x (=> a (=> a Bool))) (y a) (z (list a))) (list a)
       (match z
         (case nil (as nil (list a)))
         (case (cons y2 ys)
           (ite (@ (@ x y) y2) ys (cons y2 (deleteBy x y ys))))))))
(define-fun-rec
  (par (a)
    (isPermutation
       ((x (list a)) (y (list a))) Bool
       (match x
         (case nil
           (match y
             (case nil true)
             (case (cons z x2) false)))
         (case (cons x3 xs)
           (and (elem x3 y)
             (isPermutation xs
               (deleteBy (lambda ((x4 a)) (lambda ((x5 a)) (= x4 x5)))
                 x3 y))))))))
(assert-not (forall ((x (list Int))) (isPermutation (isort x) x)))
(check-sat)
